
Log started (V11.0.0) Mon Apr 14 10:53:16 2008

Tried aggregator 1 time.
Reduced MIP has 540 rows, 20001 columns, and 40040 nonzeros.
Presolve time =    0.16 sec.
Clique table members: 500.
MIP emphasis: balance optimality and feasibility.
MIP search method: dynamic search.
Parallel mode: none, using 1 thread.
Root relaxation solution time =    0.66 sec.

        Nodes                                         Cuts/
   Node  Left     Objective  IInf  Best Integer     Best Node    ItCnt     Gap

*     0+    0                        25415.0000       37.7296     1139   99.85%
*     0+    0                           43.0000       37.7296     1139   12.26%
      0     0       38.0000    65       43.0000      Fract: 7     1146   11.63%
*     0+    0                           42.0000       38.0000     1146    9.52%
*     0+    0                           41.0000       38.0000     1146    7.32%

Repeating presolve.
Tried aggregator 1 time.
MIP Presolve eliminated 0 rows and 11910 columns.
Reduced MIP has 540 rows, 8091 columns, and 16220 nonzeros.
Tried aggregator 1 time.
Represolve time =    0.44 sec.
Clique table members: 926.
MIP emphasis: balance optimality and feasibility.
MIP search method: dynamic search.
Parallel mode: none, using 1 thread.
Root relaxation solution time =    0.24 sec.

        Nodes                                         Cuts/
   Node  Left     Objective  IInf  Best Integer     Best Node    ItCnt     Gap

      0     0       38.0000    72       41.0000       38.0000      934    7.32%
      0     2       38.0000    72       41.0000       38.0000      934    7.32%
*    80+   70                           40.0000       38.0000     5911    5.00%
    100    84       39.0000    67       40.0000       38.0000     7853    5.00%
    200   162    infeasible             40.0000       38.0000    14767    5.00%
    300   242       39.0000    68       40.0000       38.0000    24267    5.00%
    400   320       39.0000    67       40.0000       38.0000    32459    5.00%
*   420+   81                           39.0000       38.0000    33729    2.56%
    500   138       38.0000    96       39.0000       38.0000    42987    2.56%
    600   106       38.0000   135       39.0000       38.0000    80268    2.56%
    700    94       38.0000   222       39.0000       38.0000   104510    2.56%
    800   119       38.0000   236       39.0000       38.0000   138870    2.56%
    900   147       38.0000   230       39.0000       38.0000   177618    2.56%
   1000   141       38.0000   224       39.0000       38.0000   226816    2.56%
Elapsed time = 115.36 sec. (tree size =  1.84 MB, solutions = 6)
   1100   159       38.0000   206       39.0000       38.0000   267998    2.56%
   1200   211       38.0000   186       39.0000       38.0000   295687    2.56%
   1300   241    infeasible             39.0000       38.0000   328275    2.56%
   1400   261       38.0000   204       39.0000       38.0000   364459    2.56%
   1500   271       38.0000   267       39.0000       38.0000   402265    2.56%
   1600   279       38.0000   238       39.0000       38.0000   446263    2.56%
   1700   293    infeasible             39.0000       38.0000   488187    2.56%
   1800   321    infeasible             39.0000       38.0000   524219    2.56%
   1900   331       38.0000   235       39.0000       38.0000   567363    2.56%
   2000   331    infeasible             39.0000       38.0000   613868    2.56%
Elapsed time = 320.06 sec. (tree size =  5.41 MB, solutions = 6)
   2100   327       38.0000   248       39.0000       38.0000   661294    2.56%
   2200   367       38.0000   249       39.0000       38.0000   695833    2.56%
   2300   383       38.0000   273       39.0000       38.0000   734803    2.56%
   2400   375    infeasible             39.0000       38.0000   782678    2.56%
   2500   363    infeasible             39.0000       38.0000   832550    2.56%
   2600   365    infeasible             39.0000       38.0000   874690    2.56%
   2700   359    infeasible             39.0000       38.0000   922938    2.56%
   2800   357    infeasible             39.0000       38.0000   965968    2.56%
   2900   345    infeasible             39.0000       38.0000  1011660    2.56%
   3000   343       38.0000   254       39.0000       38.0000  1052027    2.56%
Elapsed time = 582.34 sec. (tree size =  6.29 MB, solutions = 6)
   3100   329    infeasible             39.0000       38.0000  1097117    2.56%
   3200   319    infeasible             39.0000       38.0000  1140699    2.56%
   3300   301       38.0000   218       39.0000       38.0000  1187927    2.56%
   3400   291    infeasible             39.0000       38.0000  1230006    2.56%
   3500   269       38.0000   250       39.0000       38.0000  1277654    2.56%
   3600   249       38.0000   191       39.0000       38.0000  1325300    2.56%
   3700   231    infeasible             39.0000       38.0000  1369705    2.56%
   3800   191       38.0000   230       39.0000       38.0000  1418273    2.56%
   3900   175    infeasible             39.0000       38.0000  1465273    2.56%
   4000   151       38.0000   267       39.0000       38.0000  1512693    2.56%
Elapsed time = 881.58 sec. (tree size =  2.97 MB, solutions = 6)
   4100   155    infeasible             39.0000       38.0000  1554688    2.56%
   4200   137       38.0001   284       39.0000       38.0000  1603246    2.56%
   4300   107    infeasible             39.0000       38.0000  1650770    2.56%
   4400    81    infeasible             39.0000       38.0000  1696763    2.56%
   4500    47    infeasible             39.0000       38.0000  1746435    2.56%
   4600    33       38.0000   265       39.0000       38.0000  1787325    2.56%
   4700     9    infeasible             39.0000       38.0000  1832160    2.56%

Cover cuts applied:  1334
Zero-half cuts applied:  3
Gomory fractional cuts applied:  7

Solution pool: 6 solutions saved.

MIP - Integer optimal solution:  Objective = 3.9000000000e+001
Solution time = 1108.45 sec.  Iterations = 1845241  Nodes = 4728


Incumbent solution
Variable Name           Solution Value
Cmax                         39.000000
X_1_28                        1.000000
X_2_2                         1.000000
X_3_30                        1.000000
X_4_14                        1.000000
X_5_4                         1.000000
X_6_29                        1.000000
X_7_36                        1.000000
X_8_29                        1.000000
X_9_18                        1.000000
X_10_1                        1.000000
X_11_33                       1.000000
X_12_40                       1.000000
X_13_25                       1.000000
X_14_37                       1.000000
X_15_24                       1.000000
X_16_8                        1.000000
X_17_37                       1.000000
X_18_33                       1.000000
X_19_25                       1.000000
X_20_15                       1.000000
X_21_15                       1.000000
X_22_19                       1.000000
X_23_34                       1.000000
X_24_9                        1.000000
X_25_14                       1.000000
X_26_4                        1.000000
X_27_4                        1.000000
X_28_11                       1.000000
X_29_13                       1.000000
X_30_33                       1.000000
X_31_1                        1.000000
X_32_37                       1.000000
X_33_39                       1.000000
X_34_5                        1.000000
X_35_5                        1.000000
X_36_5                        1.000000
X_37_30                       1.000000
X_38_39                       1.000000
X_39_6                        1.000000
X_40_9                        1.000000
X_41_37                       1.000000
X_42_25                       1.000000
X_43_26                       1.000000
X_44_24                       1.000000
X_45_23                       1.000000
X_46_20                       1.000000
X_47_31                       1.000000
X_48_30                       1.000000
X_49_13                       1.000000
X_50_5                        1.000000
X_51_13                       1.000000
X_52_36                       1.000000
X_53_20                       1.000000
X_54_15                       1.000000
X_55_33                       1.000000
X_56_12                       1.000000
X_57_20                       1.000000
X_58_16                       1.000000
X_59_40                       1.000000
X_60_19                       1.000000
X_61_32                       1.000000
X_62_23                       1.000000
X_63_18                       1.000000
X_64_7                        1.000000
X_65_26                       1.000000
X_66_24                       1.000000
X_67_40                       1.000000
X_68_8                        1.000000
X_69_38                       1.000000
X_70_26                       1.000000
X_71_18                       1.000000
X_72_32                       1.000000
X_73_12                       1.000000
X_74_5                        1.000000
X_75_8                        1.000000
X_76_36                       1.000000
X_77_12                       1.000000
X_78_28                       1.000000
X_79_38                       1.000000
X_80_10                       1.000000
X_81_28                       1.000000
X_82_14                       1.000000
X_83_31                       1.000000
X_84_36                       1.000000
X_85_34                       1.000000
X_86_26                       1.000000
X_87_33                       1.000000
X_88_40                       1.000000
X_89_5                        1.000000
X_90_2                        1.000000
X_91_6                        1.000000
X_92_19                       1.000000
X_93_26                       1.000000
X_94_3                        1.000000
X_95_9                        1.000000
X_96_20                       1.000000
X_97_23                       1.000000
X_98_10                       1.000000
X_99_17                       1.000000
X_100_32                      1.000000
X_101_1                       1.000000
X_102_33                      1.000000
X_103_36                      1.000000
X_104_12                      1.000000
X_105_4                       1.000000
X_106_18                      1.000000
X_107_9                       1.000000
X_108_33                      1.000000
X_109_39                      1.000000
X_110_26                      1.000000
X_111_20                      1.000000
X_112_29                      1.000000
X_113_25                      1.000000
X_114_18                      1.000000
X_115_16                      1.000000
X_116_13                      1.000000
X_117_1                       1.000000
X_118_28                      1.000000
X_119_9                       1.000000
X_120_32                      1.000000
X_121_5                       1.000000
X_122_39                      1.000000
X_123_35                      1.000000
X_124_18                      1.000000
X_125_7                       1.000000
X_126_28                      1.000000
X_127_32                      1.000000
X_128_19                      1.000000
X_129_19                      1.000000
X_130_11                      1.000000
X_131_26                      1.000000
X_132_2                       1.000000
X_133_37                      1.000000
X_134_23                      1.000000
X_135_31                      1.000000
X_136_36                      1.000000
X_137_21                      1.000000
X_138_28                      1.000000
X_139_16                      1.000000
X_140_8                       1.000000
X_141_20                      1.000000
X_142_6                       1.000000
X_143_38                      1.000000
X_144_15                      1.000000
X_145_10                      1.000000
X_146_35                      1.000000
X_147_31                      1.000000
X_148_27                      1.000000
X_149_5                       1.000000
X_150_28                      1.000000
X_151_9                       1.000000
X_152_13                      1.000000
X_153_12                      1.000000
X_154_30                      1.000000
X_155_32                      1.000000
X_156_26                      1.000000
X_157_38                      1.000000
X_158_40                      1.000000
X_159_23                      1.000000
X_160_32                      1.000000
X_161_13                      1.000000
X_162_14                      1.000000
X_163_32                      1.000000
X_164_37                      1.000000
X_165_33                      1.000000
X_166_26                      1.000000
X_167_2                       1.000000
X_168_18                      1.000000
X_169_25                      1.000000
X_170_35                      1.000000
X_171_21                      1.000000
X_172_37                      1.000000
X_173_26                      1.000000
X_174_25                      1.000000
X_175_16                      1.000000
X_176_16                      1.000000
X_177_13                      1.000000
X_178_30                      1.000000
X_179_27                      1.000000
X_180_3                       1.000000
X_181_37                      1.000000
X_182_22                      1.000000
X_183_10                      1.000000
X_184_30                      1.000000
X_185_23                      1.000000
X_186_25                      1.000000
X_187_37                      1.000000
X_188_24                      1.000000
X_189_37                      1.000000
X_190_27                      1.000000
X_191_21                      1.000000
X_192_31                      1.000000
X_193_37                      1.000000
X_194_33                      1.000000
X_195_38                      1.000000
X_196_11                      1.000000
X_197_33                      1.000000
X_198_32                      1.000000
X_199_17                      1.000000
X_200_14                      1.000000
X_201_37                      1.000000
X_202_14                      1.000000
X_203_14                      1.000000
X_204_19                      1.000000
X_205_10                      1.000000
X_206_39                      1.000000
X_207_17                      1.000000
X_208_5                       1.000000
X_209_29                      1.000000
X_210_24                      1.000000
X_211_20                      1.000000
X_212_38                      1.000000
X_213_21                      1.000000
X_214_15                      1.000000
X_215_15                      1.000000
X_216_7                       1.000000
X_217_7                       1.000000
X_218_17                      1.000000
X_219_35                      1.000000
X_220_29                      1.000000
X_221_18                      1.000000
X_222_21                      1.000000
X_223_31                      1.000000
X_224_11                      1.000000
X_225_4                       1.000000
X_226_4                       1.000000
X_227_12                      1.000000
X_228_5                       1.000000
X_229_10                      1.000000
X_230_12                      1.000000
X_231_27                      1.000000
X_232_18                      1.000000
X_233_15                      1.000000
X_234_20                      1.000000
X_235_3                       1.000000
X_236_24                      1.000000
X_237_34                      1.000000
X_238_2                       1.000000
X_239_26                      1.000000
X_240_34                      1.000000
X_241_19                      1.000000
X_242_39                      1.000000
X_243_31                      1.000000
X_244_4                       1.000000
X_245_24                      1.000000
X_246_17                      1.000000
X_247_34                      1.000000
X_248_28                      1.000000
X_249_3                       1.000000
X_250_3                       1.000000
X_251_19                      1.000000
X_252_18                      1.000000
X_253_17                      1.000000
X_254_21                      1.000000
X_255_16                      1.000000
X_256_40                      1.000000
X_257_28                      1.000000
X_258_22                      1.000000
X_259_17                      1.000000
X_260_30                      1.000000
X_261_6                       1.000000
X_262_25                      1.000000
X_263_13                      1.000000
X_264_29                      1.000000
X_265_27                      1.000000
X_266_24                      1.000000
X_267_35                      1.000000
X_268_7                       1.000000
X_269_10                      1.000000
X_270_22                      1.000000
X_271_22                      1.000000
X_272_22                      1.000000
X_273_14                      1.000000
X_274_24                      1.000000
X_275_8                       1.000000
X_276_9                       1.000000
X_277_21                      1.000000
X_278_11                      1.000000
X_279_20                      1.000000
X_280_16                      1.000000
X_281_32                      1.000000
X_282_39                      1.000000
X_283_32                      1.000000
X_284_36                      1.000000
X_285_25                      1.000000
X_286_15                      1.000000
X_287_27                      1.000000
X_288_36                      1.000000
X_289_35                      1.000000
X_290_9                       1.000000
X_291_29                      1.000000
X_292_35                      1.000000
X_293_18                      1.000000
X_294_39                      1.000000
X_295_22                      1.000000
X_296_38                      1.000000
X_297_14                      1.000000
X_298_29                      1.000000
X_299_16                      1.000000
X_300_6                       1.000000
X_301_17                      1.000000
X_302_22                      1.000000
X_303_13                      1.000000
X_304_34                      1.000000
X_305_12                      1.000000
X_306_22                      1.000000
X_307_24                      1.000000
X_308_39                      1.000000
X_309_2                       1.000000
X_310_26                      1.000000
X_311_14                      1.000000
X_312_28                      1.000000
X_313_2                       1.000000
X_314_8                       1.000000
X_315_13                      1.000000
X_316_7                       1.000000
X_317_22                      1.000000
X_318_19                      1.000000
X_319_13                      1.000000
X_320_4                       1.000000
X_321_14                      1.000000
X_322_21                      1.000000
X_323_21                      1.000000
X_324_23                      1.000000
X_325_15                      1.000000
X_326_16                      1.000000
X_327_2                       1.000000
X_328_4                       1.000000
X_329_11                      1.000000
X_330_16                      1.000000
X_331_3                       1.000000
X_332_3                       1.000000
X_333_19                      1.000000
X_334_3                       1.000000
X_335_39                      1.000000
X_336_35                      1.000000
X_337_30                      1.000000
X_338_1                       1.000000
X_339_15                      1.000000
X_340_1                       1.000000
X_341_33                      1.000000
X_342_36                      1.000000
X_343_30                      1.000000
X_344_4                       1.000000
X_345_33                      1.000000
X_346_37                      1.000000
X_347_15                      1.000000
X_348_9                       1.000000
X_349_6                       1.000000
X_350_24                      1.000000
X_351_2                       1.000000
X_352_23                      1.000000
X_353_17                      1.000000
X_354_6                       1.000000
X_355_25                      1.000000
X_356_24                      1.000000
X_357_10                      1.000000
X_358_1                       1.000000
X_359_3                       1.000000
X_360_21                      1.000000
X_361_19                      1.000000
X_362_3                       1.000000
X_363_12                      1.000000
X_364_27                      1.000000
X_365_12                      1.000000
X_366_10                      1.000000
X_367_13                      1.000000
X_368_34                      1.000000
X_369_3                       1.000000
X_370_8                       1.000000
X_371_30                      1.000000
X_372_40                      1.000000
X_373_15                      1.000000
X_374_33                      1.000000
X_375_19                      1.000000
X_376_16                      1.000000
X_377_21                      1.000000
X_378_17                      1.000000
X_379_14                      1.000000
X_380_33                      1.000000
X_381_4                       1.000000
X_382_3                       1.000000
X_383_24                      1.000000
X_384_37                      1.000000
X_385_4                       1.000000
X_386_28                      1.000000
X_387_35                      1.000000
X_388_7                       1.000000
X_389_5                       1.000000
X_390_7                       1.000000
X_391_18                      1.000000
X_392_35                      1.000000
X_393_28                      1.000000
X_394_7                       1.000000
X_395_21                      1.000000
X_396_11                      1.000000
X_397_21                      1.000000
X_398_28                      1.000000
X_399_6                       1.000000
X_400_2                       1.000000
X_401_31                      1.000000
X_402_6                       1.000000
X_403_35                      1.000000
X_404_18                      1.000000
X_405_39                      1.000000
X_406_20                      1.000000
X_407_6                       1.000000
X_408_16                      1.000000
X_409_34                      1.000000
X_410_24                      1.000000
X_411_28                      1.000000
X_412_25                      1.000000
X_413_40                      1.000000
X_414_4                       1.000000
X_415_30                      1.000000
X_416_14                      1.000000
X_417_20                      1.000000
X_418_4                       1.000000
X_419_28                      1.000000
X_420_11                      1.000000
X_421_10                      1.000000
X_422_4                       1.000000
X_423_21                      1.000000
X_424_30                      1.000000
X_425_4                       1.000000
X_426_19                      1.000000
X_427_21                      1.000000
X_428_23                      1.000000
X_429_37                      1.000000
X_430_20                      1.000000
X_431_20                      1.000000
X_432_11                      1.000000
X_433_21                      1.000000
X_434_22                      1.000000
X_435_16                      1.000000
X_436_29                      1.000000
X_437_39                      1.000000
X_438_17                      1.000000
X_439_14                      1.000000
X_440_32                      1.000000
X_441_11                      1.000000
X_442_16                      1.000000
X_443_5                       1.000000
X_444_35                      1.000000
X_445_8                       1.000000
X_446_24                      1.000000
X_447_11                      1.000000
X_448_26                      1.000000
X_449_36                      1.000000
X_450_23                      1.000000
X_451_40                      1.000000
X_452_38                      1.000000
X_453_7                       1.000000
X_454_7                       1.000000
X_455_31                      1.000000
X_456_9                       1.000000
X_457_31                      1.000000
X_458_10                      1.000000
X_459_29                      1.000000
X_460_37                      1.000000
X_461_12                      1.000000
X_462_15                      1.000000
X_463_27                      1.000000
X_464_18                      1.000000
X_465_3                       1.000000
X_466_7                       1.000000
X_467_29                      1.000000
X_468_36                      1.000000
X_469_6                       1.000000
X_470_1                       1.000000
X_471_39                      1.000000
X_472_38                      1.000000
X_473_4                       1.000000
X_474_4                       1.000000
X_475_24                      1.000000
X_476_38                      1.000000
X_477_29                      1.000000
X_478_37                      1.000000
X_479_20                      1.000000
X_480_3                       1.000000
X_481_6                       1.000000
X_482_33                      1.000000
X_483_6                       1.000000
X_484_14                      1.000000
X_485_21                      1.000000
X_486_35                      1.000000
X_487_40                      1.000000
X_488_15                      1.000000
X_489_40                      1.000000
X_490_13                      1.000000
X_491_11                      1.000000
X_492_33                      1.000000
X_493_14                      1.000000
X_494_38                      1.000000
X_495_22                      1.000000
X_496_29                      1.000000
X_497_16                      1.000000
X_498_8                       1.000000
X_499_26                      1.000000
X_500_9                       1.000000
All other variables in the range 1-20001 are 0.
